141
1000000
221254
94488
81430
18523
26217
133930
27685
235694
47575
133
142767
81828
137688
42101
110633
60870
211414
244099
144592
127802
20580
7425
236803
163659
161142
83077
178140
37138
194710
241806
87906
81786
56005
109386
17010
129417
8155
80911
130133
220336
45932
240513
79151
228580
14055
41894
102873
80629
130864
95038
146558
3960
32639
151576
16237
55293
88466
184863
185579
152820
59876
50014
31288
205218
190100
54086
105012
134719
89787
22003
226437
25766
6024
35110
51912
161053
32478
57092
193582
237184
12375
193895
33033
58867
194631
47968
110306
169740
54678
26378
57921
85875
71175
222488
19406
157529
107126
245469
171843
188569
29512
20836
35194
163877
198440
223094
131433
145265
92331
95122
73181
137
27704
53608
76500
120735
245115
161028
92928
213053
56942
137200
73427
98932
163203
52494
73281
22425
29989
223403
143427
87826
1758
183728
217150
22337
19754
78441
17680
173559
212170
